;hashi.smt2

(set-logic ALL)
(set-option :produce-models true)


(declare-fun Island (Int Int) Int)
(declare-fun Line (Int Int) Int)

;(declare-fun Number (Int Int) Int)
;(declare-fun Connected_in (Int Int) Bool)
; Connected_in (is Node n connected to Node 0, in Int Steps?)

